(set-info :smt-lib-version 2.6)
(set-logic UF)
(set-info :source |Benchmarks from the paper: "Extending Sledgehammer with SMT Solvers" by Jasmin Blanchette, Sascha Bohme, and Lawrence C. Paulson, CADE 2011.  Translated to SMT2 by Andrew Reynolds and Morgan Deters.|)
(set-info :category "industrial")
(set-info :status unsat)
(declare-sort S1 0)
(declare-sort S2 0)
(declare-sort S3 0)
(declare-sort S4 0)
(declare-sort S5 0)
(declare-sort S6 0)
(declare-sort S7 0)
(declare-sort S8 0)
(declare-sort S9 0)
(declare-sort S10 0)
(declare-sort S11 0)
(declare-fun f1 () S1)
(declare-fun f2 () S1)
(declare-fun f3 (S2 S2) S1)
(declare-fun f4 (S3 S2) S2)
(declare-fun f5 (S4 S2) S3)
(declare-fun f6 () S4)
(declare-fun f7 (S5 S6) S2)
(declare-fun f8 () S5)
(declare-fun f9 (S7 S6) S6)
(declare-fun f10 (S8 S9) S7)
(declare-fun f11 () S8)
(declare-fun f12 () S9)
(declare-fun f13 () S6)
(declare-fun f14 () S6)
(declare-fun f15 () S2)
(declare-fun f16 (S7) S1)
(declare-fun f17 () S9)
(declare-fun f18 (S10 S6) S7)
(declare-fun f19 () S10)
(declare-fun f20 () S2)
(declare-fun f21 () S3)
(declare-fun f22 () S6)
(declare-fun f23 () S9)
(declare-fun f24 (S11 S11) S1)
(declare-fun f25 () S11)
(declare-fun f26 () S11)
(assert (not (= f1 f2)))
(assert (let ((?v_0 (f10 f11 f12))) (let ((?v_1 (f7 f8 (f9 ?v_0 f13))) (?v_2 (f7 f8 (f9 ?v_0 f14)))) (not (= (= (f3 (f4 (f5 f6 ?v_1) ?v_2) f15) f1) (= (f3 ?v_1 ?v_2) f1))))))
(assert (not (= (f9 (f10 f11 f12) f14) f14)))
(assert (not (= (f9 (f10 f11 f12) f14) f14)))
(assert (not (= (f16 (f10 f11 f17)) f1)))
(assert (not (= (f16 (f10 f11 f12)) f1)))
(assert (=> (= (f16 (f10 f11 f12)) f1) false))
(assert (forall ((?v0 S6) (?v1 S6)) (=> (not (= ?v0 f14)) (= (f7 f8 (f9 (f18 f19 ?v1) ?v0)) (f4 (f5 f6 (f7 f8 ?v1)) (f7 f8 ?v0))))))
(assert (forall ((?v0 S2) (?v1 S2)) (=> (not (= ?v0 f20)) (= (f4 f21 (f4 (f5 f6 ?v1) ?v0)) (f4 (f5 f6 (f4 f21 ?v1)) (f4 f21 ?v0))))))
(assert (forall ((?v0 S2) (?v1 S2)) (= (f4 f21 (f4 (f5 f6 ?v0) ?v1)) (f4 (f5 f6 (f4 f21 ?v0)) (f4 f21 ?v1)))))
(assert (forall ((?v0 S6) (?v1 S6)) (= (f7 f8 (f9 (f18 f19 ?v0) ?v1)) (f4 (f5 f6 (f7 f8 ?v0)) (f7 f8 ?v1)))))
(assert (= (f7 f8 f22) f15))
(assert (= (f4 f21 f15) f15))
(assert (forall ((?v0 S6)) (= (= (f3 f20 (f7 f8 ?v0)) f1) (not (= ?v0 f14)))))
(assert (forall ((?v0 S2)) (= (= (f3 f20 (f4 f21 ?v0)) f1) (not (= ?v0 f20)))))
(assert (forall ((?v0 S6)) (= (f9 (f18 f19 ?v0) ?v0) (ite (= ?v0 f14) f14 f22))))
(assert (forall ((?v0 S2)) (= (f4 (f5 f6 ?v0) ?v0) (ite (= ?v0 f20) f20 f15))))
(assert (forall ((?v0 S6)) (=> (not (= ?v0 f14)) (= (f9 (f18 f19 ?v0) ?v0) f22))))
(assert (forall ((?v0 S2)) (=> (not (= ?v0 f20)) (= (f4 (f5 f6 ?v0) ?v0) f15))))
(assert (forall ((?v0 S6) (?v1 S6)) (=> (not (= ?v0 f14)) (= (= (f9 (f18 f19 ?v1) ?v0) f22) (= ?v1 ?v0)))))
(assert (forall ((?v0 S2) (?v1 S2)) (=> (not (= ?v0 f20)) (= (= (f4 (f5 f6 ?v1) ?v0) f15) (= ?v1 ?v0)))))
(assert (forall ((?v0 S2) (?v1 S2)) (= (= (f3 f20 (f4 (f5 f6 ?v0) ?v1)) f1) (or (and (= (f3 f20 ?v0) f1) (= (f3 f20 ?v1) f1)) (and (= (f3 ?v0 f20) f1) (= (f3 ?v1 f20) f1))))))
(assert (forall ((?v0 S2) (?v1 S2)) (= (= (f3 (f4 (f5 f6 ?v0) ?v1) f20) f1) (or (and (= (f3 f20 ?v0) f1) (= (f3 ?v1 f20) f1)) (and (= (f3 ?v0 f20) f1) (= (f3 f20 ?v1) f1))))))
(assert (forall ((?v0 S2) (?v1 S2) (?v2 S2)) (= (= (f3 (f4 (f5 f6 ?v0) ?v1) (f4 (f5 f6 ?v2) ?v1)) f1) (and (=> (= (f3 f20 ?v1) f1) (= (f3 ?v0 ?v2) f1)) (and (=> (= (f3 ?v1 f20) f1) (= (f3 ?v2 ?v0) f1)) (not (= ?v1 f20)))))))
(assert (forall ((?v0 S2) (?v1 S2)) (=> (= (f3 f20 ?v0) f1) (=> (= (f3 f20 ?v1) f1) (= (f3 f20 (f4 (f5 f6 ?v0) ?v1)) f1)))))
(assert (forall ((?v0 S2) (?v1 S2)) (=> (= (f3 f20 ?v0) f1) (=> (= (f3 ?v1 f20) f1) (= (f3 (f4 (f5 f6 ?v0) ?v1) f20) f1)))))
(assert (not (= (f16 (f10 f11 f23)) f1)))
(assert (forall ((?v0 S7)) (= (= (f16 ?v0) f1) (forall ((?v1 S6) (?v2 S6)) (= (f9 ?v0 ?v1) (f9 ?v0 ?v2))))))
(assert (forall ((?v0 S2)) (not (= (f3 (f4 f21 ?v0) f20) f1))))
(assert (forall ((?v0 S6)) (not (= (f3 (f7 f8 ?v0) f20) f1))))
(assert (forall ((?v0 S11) (?v1 S11)) (=> (not (= ?v0 ?v1)) (=> (=> (= (f24 ?v0 ?v1) f1) false) (=> (=> (= (f24 ?v1 ?v0) f1) false) false)))))
(assert (forall ((?v0 S2) (?v1 S2)) (=> (not (= ?v0 ?v1)) (=> (=> (= (f3 ?v0 ?v1) f1) false) (=> (=> (= (f3 ?v1 ?v0) f1) false) false)))))
(assert (not (= f14 f22)))
(assert (not (= f20 f15)))
(assert (not (= f25 f26)))
(assert (not (= f22 f14)))
(assert (not (= f15 f20)))
(assert (not (= f26 f25)))
(assert (forall ((?v0 S6)) (= (f9 (f18 f19 ?v0) f14) f14)))
(assert (forall ((?v0 S2)) (= (f4 (f5 f6 ?v0) f20) f20)))
(assert (forall ((?v0 S6)) (= (f9 (f18 f19 f14) ?v0) f14)))
(assert (forall ((?v0 S2)) (= (f4 (f5 f6 f20) ?v0) f20)))
(assert (forall ((?v0 S6)) (= (f9 (f18 f19 f14) ?v0) f14)))
(assert (forall ((?v0 S2)) (= (f4 (f5 f6 f20) ?v0) f20)))
(assert (forall ((?v0 S6)) (= (= (f7 f8 ?v0) f20) (= ?v0 f14))))
(assert (forall ((?v0 S2)) (= (= (f4 f21 ?v0) f20) (= ?v0 f20))))
(assert (= (f7 f8 f14) f20))
(assert (= (f4 f21 f20) f20))
(assert (forall ((?v0 S6)) (= (f9 (f18 f19 ?v0) f22) ?v0)))
(assert (forall ((?v0 S2)) (= (f4 (f5 f6 ?v0) f15) ?v0)))
(assert (= (f3 f20 f15) f1))
(assert (= (f24 f25 f26) f1))
(assert (not (= (f3 f15 f20) f1)))
(assert (not (= (f24 f26 f25) f1)))
(assert (forall ((?v0 S2) (?v1 S2) (?v2 S2)) (=> (= (f3 ?v0 ?v1) f1) (=> (= (f3 ?v2 f20) f1) (= (f3 (f4 (f5 f6 ?v1) ?v2) (f4 (f5 f6 ?v0) ?v2)) f1)))))
(assert (forall ((?v0 S2) (?v1 S2) (?v2 S2)) (=> (= (f3 ?v0 ?v1) f1) (=> (= (f3 f20 ?v2) f1) (= (f3 (f4 (f5 f6 ?v0) ?v2) (f4 (f5 f6 ?v1) ?v2)) f1)))))
(check-sat)
(exit)
